 Code   532
 Dimension, Fixed Cost
   100        3000
 Facility, Client, Transportation Cost
     1       12           0
     1       24           2
     1       26           3
     1       49           4
     1       58           3
     1       76           0
     1       78           4
     1       83           1
     1       88           2
     1       91           0
     1      100           3
     2        2           3
     2        8           4
     2       10           3
     2       12           3
     2       31           4
     2       39           4
     2       55           4
     2       57           4
     2       69           3
     2       73           0
     2       79           2
     2       97           1
     3        7           3
     3        9           2
     3       21           3
     3       22           0
     3       28           3
     3       30           0
     3       38           3
     3       40           2
     3       45           2
     3       62           0
     3       89           2
     3       97           3
     3      100           2
     4       13           3
     4       14           4
     4       31           3
     4       51           3
     4       56           2
     4       60           3
     4       63           2
     4       70           0
     4       72           3
     4       77           0
     4       84           4
     4       87           0
     4       90           3
     4       94           4
     5        1           3
     5        5           3
     5        9           3
     5       16           0
     5       40           4
     5       41           3
     5       43           0
     5       49           3
     5       51           0
     5       61           4
     5       62           4
     5       69           4
     5       74           1
     5       80           2
     5       85           3
     5       86           2
     5       89           2
     6       10           2
     6       19           1
     6       26           2
     6       29           4
     6       37           1
     6       55           1
     6       57           1
     6       61           0
     6       70           1
     6       74           4
     6       82           2
     6       94           4
     6       95           4
     6       97           1
     6       99           4
     7       19           2
     7       21           1
     7       29           3
     7       54           1
     7       56           2
     7       70           3
     7       78           1
     7       84           3
     8        9           1
     8       38           2
     8       66           4
     8       68           4
     8       69           2
     8       82           1
     8       84           3
     9        1           4
     9       34           1
     9       35           0
     9       48           2
     9       53           3
     9       54           2
     9       60           1
     9       78           1
     9       85           2
     9      100           1
    10       18           1
    10       47           3
    10       52           0
    10       56           4
    10       66           0
    10       75           1
    10       89           3
    10      100           1
    11       10           2
    11       27           1
    11       45           4
    11       46           1
    11       56           1
    11       58           3
    11       66           3
    11       90           3
    11       92           0
    11       96           0
    12        6           2
    12        8           1
    12       45           2
    12       50           3
    12       80           2
    12       81           1
    12       89           4
    12       90           0
    13       15           4
    13       17           0
    13       30           1
    13       34           0
    13       40           2
    13       49           1
    13       53           4
    13       55           2
    13       59           4
    13       61           4
    13       71           3
    13       85           0
    14       13           0
    14       17           4
    14       33           2
    14       35           1
    14       50           0
    14       70           3
    15        2           0
    15       29           2
    15       43           0
    15       59           1
    15       64           1
    15       65           0
    15       96           2
    16        7           4
    16       12           3
    16       13           0
    16       16           4
    16       23           1
    16       26           4
    16       56           0
    16       61           1
    16       64           3
    16       67           0
    16       80           2
    16       82           2
    16       84           4
    16       98           3
    17        1           1
    17       29           0
    17       35           2
    17       50           2
    17       82           0
    17       84           2
    17       90           2
    17       94           1
    18        5           2
    18       20           1
    18       33           2
    18       41           1
    18       60           2
    18       73           4
    19        5           4
    19        6           1
    19       24           1
    19       29           2
    19       41           1
    19       44           1
    19       47           3
    19       64           1
    19       78           1
    19       80           0
    19       83           3
    19       99           0
    20       14           4
    20       35           1
    20       65           4
    20       88           0
    20       97           1
    21        4           2
    21       17           0
    21       24           2
    21       38           1
    21       40           2
    21       44           2
    21       52           1
    21       96           3
    22        7           4
    22       24           1
    22       42           4
    22       46           0
    22       49           1
    22       54           3
    22       64           1
    22       68           3
    22       71           1
    23        7           3
    23       17           0
    23       19           4
    23       30           3
    23       48           1
    23       49           1
    23       68           2
    23       70           2
    23       72           2
    23       94           3
    24       10           3
    24       32           1
    24       46           4
    24       49           2
    24       75           1
    24       91           2
    24       97           4
    25       10           3
    25       11           1
    25       13           3
    25       57           2
    25       71           3
    25       88           1
    25       89           0
    26        3           4
    26       11           0
    26       14           1
    26       30           0
    26       41           0
    26       57           1
    26       62           4
    26       66           2
    26       78           4
    26       79           2
    26       81           4
    26       89           3
    26       98           2
    27       15           4
    27       24           1
    27       31           0
    27       44           4
    27       67           0
    27       90           1
    27       93           4
    28        1           4
    28        3           1
    28        6           1
    28       12           1
    28       19           4
    28       36           0
    28       55           2
    28       63           2
    28       68           1
    28       82           1
    28       91           2
    29       13           1
    29       20           2
    29       26           1
    29       50           2
    29       53           0
    29       56           3
    29       66           1
    29       67           1
    29       74           3
    29       83           3
    29       92           0
    29       98           0
    30        1           2
    30       39           1
    30       57           3
    30       76           3
    30       83           0
    30       84           1
    30       88           2
    30       94           3
    31        4           4
    31        7           2
    31       19           1
    31       27           4
    31       35           2
    31       37           3
    31       60           2
    31       64           1
    31       72           1
    31       76           2
    31       77           0
    31       78           0
    31       79           2
    32        3           2
    32        9           3
    32       15           0
    32       17           1
    32       18           3
    32       25           3
    32       46           1
    32       55           0
    32       64           3
    32       70           2
    32       83           3
    33        7           1
    33       18           1
    33       25           3
    33       27           2
    33       51           4
    33       52           4
    33       55           1
    33       65           0
    34        3           1
    34        9           2
    34       18           3
    34       20           3
    34       33           2
    34       35           4
    34       40           2
    34       42           1
    34       51           0
    34       67           4
    34       73           2
    34       78           0
    34       88           3
    35       27           1
    35       31           1
    35       32           3
    35       49           0
    35       69           1
    35       72           3
    35       95           0
    35       96           2
    36       14           3
    36       41           1
    36       47           4
    36       53           4
    36       59           0
    36       60           2
    36       73           1
    36       79           2
    36       86           4
    36       94           3
    36       97           3
    37        3           2
    37       13           1
    37       18           3
    37       22           3
    37       39           3
    37       51           1
    37       59           3
    37       98           1
    38        4           1
    38        8           1
    38       50           2
    38       59           1
    38       69           3
    38       87           0
    39       11           4
    39       15           1
    39       17           2
    39       21           3
    39       41           3
    39       70           0
    39       89           4
    39       98           3
    40        6           4
    40       16           2
    40       33           1
    40       40           0
    40       42           4
    40       53           2
    40       54           3
    40       59           1
    40       67           4
    40       74           1
    40       79           2
    40       87           0
    41        1           4
    41       27           3
    41       31           0
    41       32           4
    41       37           3
    41       45           4
    41       50           0
    41       58           4
    41       71           3
    41       74           3
    41       80           4
    41       93           1
    42        1           0
    42        4           2
    42        6           2
    42       23           4
    42       29           3
    42       32           4
    42       49           0
    42       52           2
    42       53           0
    42       64           2
    42       65           1
    42       80           3
    42       82           1
    42       93           2
    42       98           0
    42       99           2
    43        9           0
    43       11           2
    43       28           0
    43       36           0
    43       40           3
    43       47           3
    43       81           1
    43       87           3
    43       90           2
    43      100           4
    44        2           4
    44        8           4
    44       16           1
    44       25           2
    44       42           4
    44       43           2
    44       49           0
    44       65           4
    44       66           3
    44       67           3
    44       69           0
    44       76           3
    45        6           2
    45       22           4
    45       31           0
    45       33           0
    45       51           1
    45       55           2
    45       66           0
    45       69           1
    45       73           2
    45       83           2
    45      100           1
    46        2           2
    46        5           1
    46       23           2
    46       30           2
    46       32           4
    46       33           2
    46       44           4
    46       50           0
    46       57           1
    46       88           3
    47       12           2
    47       36           1
    47       57           4
    47       64           3
    47       65           3
    47       81           2
    47       86           0
    48        2           4
    48       10           1
    48       20           2
    48       23           1
    48       34           0
    48       38           4
    48       39           4
    48       48           0
    48       53           4
    48       60           4
    48       63           1
    48       87           3
    48       92           1
    48       97           4
    49        8           0
    49       12           2
    49       21           0
    49       23           4
    49       42           0
    49       58           4
    49       89           4
    49       91           0
    49       95           2
    50       20           3
    50       29           3
    50       46           0
    50       63           2
    50       72           3
    50       75           0
    50       85           3
    50       86           4
    51       14           3
    51       17           3
    51       25           1
    51       34           4
    51       42           2
    51       48           2
    51       52           4
    52        5           1
    52       16           3
    52       20           0
    52       25           0
    52       32           1
    52       36           3
    52       43           2
    52       44           4
    52       53           4
    52       54           4
    52       61           0
    52       62           3
    52       63           3
    52       67           2
    52       70           3
    52       79           1
    52       81           2
    52       86           1
    52       91           4
    52       95           1
    53        2           0
    53       14           0
    53       15           0
    53       17           4
    53       36           2
    53       39           2
    53       41           2
    53       59           2
    53       60           0
    53       61           2
    53       65           0
    53       68           2
    53       94           4
    54       20           0
    54       28           4
    54       42           2
    54       45           3
    54       56           3
    54       59           4
    54       79           3
    54       84           3
    54       87           0
    54       92           3
    54      100           0
    55       11           4
    55       15           4
    55       45           4
    55       69           1
    55       71           3
    55       77           2
    56        4           2
    56       21           0
    56       22           1
    56       25           3
    56       27           0
    56       30           1
    56       32           1
    56       33           3
    56       39           1
    56       45           2
    56       47           1
    56       61           2
    56       67           0
    56       89           3
    57        8           1
    57       11           4
    57       28           3
    57       39           1
    57       41           3
    57       48           0
    57       74           0
    57       77           0
    57       80           2
    57       81           3
    57       85           4
    57       87           2
    57       91           0
    57       93           1
    58       12           3
    58       18           0
    58       21           4
    58       25           0
    58       42           1
    58       68           1
    58       72           0
    58       77           3
    59        8           2
    59       20           0
    59       26           1
    59       28           3
    59       34           4
    59       35           0
    59       43           4
    59       44           2
    59       47           3
    59       53           2
    59       63           4
    59       72           0
    59       76           0
    59       94           4
    60        5           4
    60        6           4
    60        9           2
    60       11           2
    60       65           2
    60       74           0
    60       80           1
    60       85           0
    60       91           2
    60       93           1
    60       95           0
    61       14           4
    61       16           4
    61       19           4
    61       35           4
    61       56           1
    61       57           2
    61       73           2
    61       77           1
    61       84           4
    62       24           1
    62       28           0
    62       34           3
    62       38           4
    62       62           2
    62       81           3
    62       90           1
    62       99           1
    63       11           0
    63       16           0
    63       19           3
    63       21           3
    63       27           2
    63       37           4
    63       62           3
    63       64           1
    63       71           0
    63       80           3
    63       85           0
    63       86           1
    63       88           1
    63       91           0
    63       98           3
    64        2           2
    64        3           2
    64        4           3
    64        6           4
    64       10           4
    64       13           1
    64       44           3
    64       48           1
    64       75           2
    64       77           0
    64       99           0
    65        1           1
    65        4           0
    65       10           4
    65       16           4
    65       17           2
    65       22           3
    65       23           3
    65       30           2
    65       37           0
    65       40           3
    65       45           3
    65       51           2
    65       52           3
    65       76           1
    65       89           2
    65       92           0
    66        1           0
    66        8           1
    66       11           3
    66       19           1
    66       23           2
    66       31           3
    66       34           3
    66       52           0
    66       54           4
    66       83           3
    66       98           3
    67       43           2
    67       62           1
    67       72           1
    67       75           2
    67       78           1
    67       90           3
    67       93           4
    68        5           1
    68        8           3
    68       23           4
    68       31           3
    68       37           2
    68       51           2
    68       61           4
    68       71           2
    68       79           2
    68       93           1
    69        9           3
    69       30           0
    69       47           1
    69       51           3
    69       68           0
    69       75           2
    69       77           4
    69       81           3
    69       82           1
    69       92           4
    69      100           0
    70       20           2
    70       29           1
    70       38           1
    70       42           1
    70       52           1
    70       68           0
    70       91           4
    70       95           3
    71        3           1
    71        5           1
    71       12           4
    71       34           3
    71       39           2
    71       54           0
    71       56           4
    71       69           3
    71       82           1
    71       83           4
    71       86           0
    71       99           3
    72        3           3
    72       15           1
    72       16           3
    72       52           0
    72       69           3
    72       73           2
    72       75           1
    72       97           2
    73       16           1
    73       25           3
    73       32           3
    73       34           0
    73       37           3
    73       41           0
    73       50           2
    73       66           3
    73       92           1
    73       96           3
    73       97           2
    74        7           2
    74       13           0
    74       26           0
    74       46           2
    74       55           2
    74       56           0
    74       57           3
    75        3           0
    75       25           3
    75       63           0
    75       66           2
    75       86           2
    75       88           0
    75       93           0
    75       97           1
    76        4           2
    76       36           1
    76       41           3
    76       48           2
    77       23           3
    77       28           0
    77       33           2
    77       35           4
    77       38           3
    77       39           2
    77       42           2
    77       60           1
    77       68           1
    77       77           4
    77       79           4
    77       85           0
    77       87           4
    77       92           2
    78        2           3
    78       13           0
    78       14           0
    78       18           4
    78       30           0
    78       34           3
    78       38           4
    78       46           2
    78       47           4
    78       62           1
    78       65           1
    78       68           1
    78       75           3
    78       92           1
    79        4           3
    79        5           0
    79        7           2
    79       10           1
    79       24           2
    79       43           4
    79       44           3
    79       58           4
    79       70           1
    79       86           3
    79       93           4
    79       98           0
    79       99           2
    80        2           0
    80        9           3
    80       24           0
    80       25           2
    80       29           2
    80       32           3
    80       36           4
    80       38           3
    80       48           0
    80       58           1
    80       63           0
    80       65           4
    80       71           4
    80       72           1
    80       76           4
    81       36           1
    81       47           2
    81       55           1
    81       60           3
    81       83           2
    81       87           0
    81       96           3
    82       15           3
    82       20           3
    82       24           4
    82       33           1
    82       40           2
    82       43           3
    82       74           3
    82       75           0
    82       77           1
    82       88           3
    82       93           0
    82       99           4
    83       15           4
    83       21           2
    83       40           4
    83       45           1
    83       46           1
    83       55           0
    83       90           3
    84        1           1
    84       21           3
    84       29           0
    84       37           3
    84       45           1
    84       63           4
    84       74           3
    84       78           4
    84       95           0
    85       12           3
    85       18           4
    85       31           4
    85       35           4
    85       44           2
    85       47           1
    85       48           3
    85       50           3
    85       59           0
    85       71           4
    85       85           0
    85       95           2
    85       96           4
    85       99           2
    86        5           3
    86        7           2
    86        8           4
    86       13           4
    86       14           0
    86       18           1
    86       21           2
    86       32           4
    86       36           1
    86       46           0
    86       53           2
    86       57           2
    86       76           3
    86       78           1
    86       80           4
    87        2           2
    87       26           3
    87       33           0
    87       50           1
    87       58           4
    87       61           4
    87       63           3
    88       14           2
    88       39           1
    88       54           4
    88       58           4
    88       61           2
    88       67           0
    88       73           1
    88       74           4
    88       87           1
    89        4           1
    89        6           1
    89       11           1
    89       26           1
    89       27           3
    89       49           2
    89       75           1
    89       76           4
    89       88           1
    89       95           0
    89       96           4
    89      100           0
    90       10           4
    90       22           0
    90       28           4
    90       30           0
    90       31           2
    90       36           2
    90       48           4
    90       52           4
    90       58           3
    90       62           4
    90       83           3
    90       94           2
    91       22           2
    92        9           0
    92       51           2
    92       54           3
    92       79           4
    92       82           1
    92       90           3
    93       19           2
    93       28           0
    93       37           1
    93       59           3
    93       62           4
    93       73           4
    93       92           1
    94       19           4
    94       22           4
    94       38           2
    94       81           2
    94       84           2
    94       91           2
    94      100           3
    95       17           0
    95       28           0
    95       43           2
    95       60           0
    95       99           2
    96        6           3
    96       23           2
    96       27           0
    96       58           4
    96       66           0
    96       70           4
    96       96           0
    97       12           1
    97       22           4
    97       27           4
    97       76           4
    97       82           0
    97       86           1
    97       96           4
    97       98           2
    98       24           0
    98       37           0
    98       46           4
    98       67           3
    99        3           3
    99       15           0
    99       26           0
    99       54           3
    99       64           0
    99       72           3
    99       73           1
    99       84           0
    99       85           4
   100        7           2
   100       18           3
   100       22           0
   100       26           2
   100       43           4
   100       44           2
   100       71           2
   100       81           2
   100       94           0
   100       95           0
